
Gurobi 7.5.2 (linux64) logging started Sat Jun 23 16:25:58 2018

Changed value of parameter LogFile to result/ilp/simNo_1-n_100-m_40-s_10-minVAF_0.05-cov_10000-k_2-fn_0.25-fp_0.0001-na_0.15.ILP.gurobiSolverLog
   Prev: gurobi.log  Default: 
Changed value of parameter TimeLimit to 86400.0
   Prev: 1e+100  Min: 0.0  Max: 1e+100  Default: 1e+100
Optimize a model with 1265601 rows, 330440 columns and 3489120 nonzeros
Variable types: 0 continuous, 330440 integer (330440 binary)
Coefficient statistics:
  Matrix range     [6e-04, 3e+00]
  Objective range  [1e+00, 2e+01]
  Bounds range     [1e+00, 1e+00]
  RHS range        [6e-02, 2e+00]
Found heuristic solution: objective -7874.129114
Presolve removed 408897 rows and 229507 columns (presolve time = 7s) ...
Presolve removed 409083 rows and 229507 columns (presolve time = 10s) ...
Presolve removed 409083 rows and 229507 columns (presolve time = 15s) ...
Presolve removed 409083 rows and 229507 columns (presolve time = 20s) ...
Presolve removed 409083 rows and 229507 columns (presolve time = 25s) ...
Presolve removed 409083 rows and 229507 columns (presolve time = 31s) ...
Presolve removed 409083 rows and 229507 columns (presolve time = 35s) ...
Presolve removed 409083 rows and 229507 columns (presolve time = 40s) ...
Presolve removed 409083 rows and 229507 columns (presolve time = 45s) ...
Presolve removed 409083 rows and 229507 columns (presolve time = 50s) ...
Presolve removed 409083 rows and 229507 columns (presolve time = 57s) ...
Presolve removed 409083 rows and 229507 columns
Presolve time: 59.18s
Presolved: 856518 rows, 100933 columns, 2385557 nonzeros
Variable types: 0 continuous, 100933 integer (100933 binary)
Presolved: 100933 rows, 957451 columns, 2486490 nonzeros

Presolve removed 100933 rows and 957451 columns

Root simplex log...

Iteration    Objective       Primal Inf.    Dual Inf.      Time
       0    4.4286506e+01   0.000000e+00   5.952000e+04     71s
   13086   -1.5710272e+02   0.000000e+00   5.391921e+04     75s
   21141   -1.8558676e+02   0.000000e+00   1.732840e+04     80s
   30932   -2.0384080e+02   0.000000e+00   0.000000e+00     84s
   30932   -2.0384080e+02   0.000000e+00   0.000000e+00     87s

Root relaxation: objective -2.038408e+02, 30932 iterations, 24.71 seconds
Total elapsed time = 115.69s
Total elapsed time = 127.35s
Total elapsed time = 136.85s

    Nodes    |    Current Node    |     Objective Bounds      |     Work
 Expl Unexpl |  Obj  Depth IntInf | Incumbent    BestBd   Gap | It/Node Time

     0     0 -203.84080    0  698 -7874.1291 -203.84080  97.4%     -  145s
H    0     0                    -219.7192608 -203.84080  7.23%     -  161s
     0     0 -207.04027    0  579 -219.71926 -207.04027  5.77%     -  198s
     0     0 -207.04027    0  579 -219.71926 -207.04027  5.77%     -  221s
     0     0 -208.50506    0  653 -219.71926 -208.50506  5.10%     -  256s
H    0     0                    -218.4711390 -208.50506  4.56%     -  265s
     0     0 -208.56883    0  630 -218.47114 -208.56883  4.53%     -  283s
     0     0 -208.56883    0  630 -218.47114 -208.56883  4.53%     -  291s
     0     0 -208.82533    0  634 -218.47114 -208.82533  4.42%     -  300s
     0     0 -209.18150    0  621 -218.47114 -209.18150  4.25%     -  324s
     0     0 -209.39114    0  596 -218.47114 -209.39114  4.16%     -  343s
     0     0 -209.39114    0  595 -218.47114 -209.39114  4.16%     -  350s
     0     0 -209.50112    0  589 -218.47114 -209.50112  4.11%     -  360s
     0     0 -209.67708    0  651 -218.47114 -209.67708  4.03%     -  378s
     0     0 -209.68351    0  713 -218.47114 -209.68351  4.02%     -  385s
     0     0 -209.70270    0  680 -218.47114 -209.70270  4.01%     -  395s
     0     0 -209.70270    0  680 -218.47114 -209.70270  4.01%     -  410s
     0     0 -210.05606    0  665 -218.47114 -210.05606  3.85%     -  454s
     0     0 -210.05606    0  432 -218.47114 -210.05606  3.85%     - 1080s
     0     0 -210.55620    0  495 -218.47114 -210.55620  3.62%     - 1102s
     0     0 -211.16906    0  398 -218.47114 -211.16906  3.34%     - 1124s
     0     0 -211.16906    0  400 -218.47114 -211.16906  3.34%     - 1128s
     0     0 -211.72316    0  414 -218.47114 -211.72316  3.09%     - 1140s
     0     0 -211.72316    0  407 -218.47114 -211.72316  3.09%     - 1189s
     0     0 -211.72316    0  129 -218.47114 -211.72316  3.09%     - 1199s
     0     0 -211.72316    0  173 -218.47114 -211.72316  3.09%     - 1202s
     0     0 -211.73213    0  129 -218.47114 -211.73213  3.08%     - 1205s
     0     0 -212.15915    0  146 -218.47114 -212.15915  2.89%     - 1207s
     0     0 -212.16201    0  145 -218.47114 -212.16201  2.89%     - 1210s
     0     0 -212.16201    0  146 -218.47114 -212.16201  2.89%     - 1211s
     0     0 -212.16201    0  145 -218.47114 -212.16201  2.89%     - 1213s
     0     0 -212.21154    0  179 -218.47114 -212.21154  2.87%     - 1217s
     0     0 -212.21628    0  181 -218.47114 -212.21628  2.86%     - 1219s
     0     0 -212.23051    0  180 -218.47114 -212.23051  2.86%     - 1221s
     0     0 -212.23054    0  181 -218.47114 -212.23054  2.86%     - 1222s
     0     0 -212.23054    0  180 -218.47114 -212.23054  2.86%     - 1224s
     0     0 -212.23058    0  182 -218.47114 -212.23058  2.86%     - 1226s
     0     0 -212.30671    0  177 -218.47114 -212.30671  2.82%     - 1228s
     0     0 -212.30671    0  176 -218.47114 -212.30671  2.82%     - 1229s
     0     0 -212.34479    0  122 -218.47114 -212.34479  2.80%     - 1231s
     0     0 -212.51087    0  163 -218.47114 -212.51087  2.73%     - 1233s
     0     0 -212.59391    0  162 -218.47114 -212.59391  2.69%     - 1234s
     0     0 -212.60154    0  168 -218.47114 -212.60154  2.69%     - 1236s
     0     0 -212.60401    0  170 -218.47114 -212.60401  2.69%     - 1237s
     0     0 -212.60431    0  170 -218.47114 -212.60431  2.69%     - 1238s
     0     0 -212.82240    0  183 -218.47114 -212.82240  2.59%     - 1240s
     0     0 -212.86357    0  182 -218.47114 -212.86357  2.57%     - 1242s
     0     0 -212.88472    0  182 -218.47114 -212.88472  2.56%     - 1244s
     0     0 -212.89215    0  178 -218.47114 -212.89215  2.55%     - 1245s
     0     0 -212.89215    0  180 -218.47114 -212.89215  2.55%     - 1247s
     0     0 -212.99932    0  177 -218.47114 -212.99932  2.50%     - 1249s
     0     0 -213.06923    0  178 -218.47114 -213.06923  2.47%     - 1251s
     0     0 -213.09425    0  180 -218.47114 -213.09425  2.46%     - 1252s
     0     0 -213.12439    0  180 -218.47114 -213.12439  2.45%     - 1253s
     0     0 -213.14293    0  181 -218.47114 -213.14293  2.44%     - 1254s
     0     0 -213.14446    0  181 -218.47114 -213.14446  2.44%     - 1255s
     0     0 -213.14576    0  181 -218.47114 -213.14576  2.44%     - 1257s
     0     0 -213.58392    0  178 -218.47114 -213.58392  2.24%     - 1258s
     0     0 -213.65959    0  179 -218.47114 -213.65959  2.20%     - 1261s
     0     0 -213.75546    0  182 -218.47114 -213.75546  2.16%     - 1263s
     0     0 -213.77429    0  161 -218.47114 -213.77429  2.15%     - 1264s
     0     0 -213.78602    0  178 -218.47114 -213.78602  2.14%     - 1265s
     0     0 -213.78880    0  183 -218.47114 -213.78880  2.14%     - 1267s
     0     0 -213.78880    0  183 -218.47114 -213.78880  2.14%     - 1268s
     0     0 -214.01000    0  174 -218.47114 -214.01000  2.04%     - 1270s
     0     0 -214.01499    0  175 -218.47114 -214.01499  2.04%     - 1271s
     0     0 -214.01640    0  175 -218.47114 -214.01640  2.04%     - 1273s
     0     0 -214.09627    0  174 -218.47114 -214.09627  2.00%     - 1274s
     0     0 -214.16826    0  180 -218.47114 -214.16826  1.97%     - 1277s
     0     0 -214.17234    0  185 -218.47114 -214.17234  1.97%     - 1278s
     0     0 -214.17234    0  184 -218.47114 -214.17234  1.97%     - 1279s
     0     0 -214.26932    0  184 -218.47114 -214.26932  1.92%     - 1281s
     0     0 -214.28675    0  183 -218.47114 -214.28675  1.92%     - 1284s
     0     0 -214.28793    0  182 -218.47114 -214.28793  1.91%     - 1285s
     0     0 -214.28793    0  184 -218.47114 -214.28793  1.91%     - 1287s
     0     0 -214.37148    0  184 -218.47114 -214.37148  1.88%     - 1288s
     0     0 -214.42873    0  183 -218.47114 -214.42873  1.85%     - 1291s
     0     0 -214.47087    0  184 -218.47114 -214.47087  1.83%     - 1293s
     0     0 -214.47087    0  185 -218.47114 -214.47087  1.83%     - 1294s
     0     0 -214.70754    0  175 -218.47114 -214.70754  1.72%     - 1296s
     0     0 -214.86498    0  173 -218.47114 -214.86498  1.65%     - 1298s
     0     0 -214.86639    0  175 -218.47114 -214.86639  1.65%     - 1299s
     0     0 -214.86719    0  175 -218.47114 -214.86719  1.65%     - 1300s
     0     0 -214.99957    0  154 -218.47114 -214.99957  1.59%     - 1302s
     0     0 -215.02889    0  177 -218.47114 -215.02889  1.58%     - 1304s
     0     0 -215.02933    0  177 -218.47114 -215.02933  1.58%     - 1306s
     0     0 -215.24879    0  180 -218.47114 -215.24879  1.47%     - 1308s
     0     0 -215.31503    0  180 -218.47114 -215.31503  1.44%     - 1310s
     0     0 -215.33553    0  183 -218.47114 -215.33553  1.44%     - 1312s
     0     0 -215.34445    0  185 -218.47114 -215.34445  1.43%     - 1313s
     0     0 -215.34772    0  186 -218.47114 -215.34772  1.43%     - 1315s
     0     0 -215.34868    0  186 -218.47114 -215.34868  1.43%     - 1316s
     0     0 -215.41842    0  178 -218.47114 -215.41842  1.40%     - 1318s
     0     0 -215.42228    0  178 -218.47114 -215.42228  1.40%     - 1320s
     0     0 -215.42543    0  178 -218.47114 -215.42543  1.39%     - 1321s
     0     0 -215.43154    0  180 -218.47114 -215.43154  1.39%     - 1323s
     0     0 -215.43154    0  181 -218.47114 -215.43154  1.39%     - 1324s
     0     0 -215.50362    0  184 -218.47114 -215.50362  1.36%     - 1326s
     0     0 -215.51907    0  188 -218.47114 -215.51907  1.35%     - 1328s
     0     0 -215.52513    0  208 -218.47114 -215.52513  1.35%     - 1329s
     0     0 -215.52752    0  186 -218.47114 -215.52752  1.35%     - 1330s
     0     0 -215.52866    0  190 -218.47114 -215.52866  1.35%     - 1331s
     0     0 -215.52866    0  210 -218.47114 -215.52866  1.35%     - 1332s
     0     0 -215.56028    0  186 -218.47114 -215.56028  1.33%     - 1334s
     0     0 -215.57077    0  206 -218.47114 -215.57077  1.33%     - 1336s
     0     0 -215.57868    0  202 -218.47114 -215.57868  1.32%     - 1337s
     0     0 -215.57960    0  187 -218.47114 -215.57960  1.32%     - 1339s
     0     0 -215.59551    0  189 -218.47114 -215.59551  1.32%     - 1342s
     0     0 -215.60115    0  207 -218.47114 -215.60115  1.31%     - 1345s
     0     0 -215.60203    0  207 -218.47114 -215.60203  1.31%     - 1346s
     0     0 -215.60211    0  208 -218.47114 -215.60211  1.31%     - 1349s
     0     0 -217.67321    0  162 -218.47114 -217.67321  0.37%     - 1385s
     0     0 -217.74435    0  103 -218.47114 -217.74435  0.33%     - 1388s
     0     0 -217.74435    0  103 -218.47114 -217.74435  0.33%     - 1391s
     2     2 -217.74435    0  665 -218.47114 -217.74435  0.33%   0.0 1404s

Cutting planes:
  Zero half: 4

Explored 2 nodes (79723 simplex iterations) in 1404.82 seconds
Thread count was 1 (of 80 available processors)

Solution count 5: -218.471 -218.471 -218.471 ... -7874.13

Optimal solution found (tolerance 1.00e-04)
Best objective -2.184711390477e+02, best bound -2.184711390477e+02, gap 0.0000%
